Minimize
 obj: X_1
Subject To
 -X0 >= -1
 X0 >= 0
 X0 + X1 >= 1
 4000002 X0 - X138 + X140 >= 1
 -4000002 X0 + X138 - X140 >= -4000002
 -X1 >= -1
 X1 >= 0
 2760106 X1 - X139 + X140 >= 1
 -5239898 X1 + X139 - X140 >= -5239898
 -X2 >= -1
 X2 >= 0
 X2 + X3 >= 1
 4000002 X2 - X141 + X143 >= 1
 -4000002 X2 + X141 - X143 >= -4000002
 -X3 >= -1
 X3 >= 0
 3120512 X3 - X142 + X143 >= 1
 -4879492 X3 + X142 - X143 >= -4879492
 -X4 >= -1
 X4 >= 0
 X4 + X5 >= 1
 81398 X4 - X144 + X146 >= 1
 -7918606 X4 + X144 - X146 >= -7918606
 -X5 >= -1
 X5 >= 0
 4000002 X5 - X145 + X146 >= 1
 -4000002 X5 + X145 - X146 >= -4000002
 -X6 >= -1
 X6 >= 0
 X6 + X7 >= 1
 4000002 X6 - X147 + X149 >= 1
 -4000002 X6 + X147 - X149 >= -4000002
 -X7 >= -1
 X7 >= 0
 1595488 X7 - X148 + X149 >= 1
 -6404516 X7 + X148 - X149 >= -6404516
 -X8 >= -1
 X8 >= 0
 X8 + X9 >= 1
 4000002 X8 - X150 + X152 >= 1
 -4000002 X8 + X150 - X152 >= -4000002
 -X9 >= -1
 X9 >= 0
 164168 X9 - X151 + X152 >= 1
 -7835836 X9 + X151 - X152 >= -7835836
 -X10 >= -1
 X10 >= 0
 X10 + X11 >= 1
 4000002 X10 - X153 + X155 >= 1
 -4000002 X10 + X153 - X155 >= -4000002
 -X11 >= -1
 X11 >= 0
 414706 X11 - X154 + X155 >= 1
 -7585298 X11 + X154 - X155 >= -7585298
 -X12 >= -1
 X12 >= 0
 X12 + X13 >= 1
 331880 X12 - X156 + X158 >= 1
 -7668124 X12 + X156 - X158 >= -7668124
 -X13 >= -1
 X13 >= 0
 4000002 X13 - X157 + X158 >= 1
 -4000002 X13 + X157 - X158 >= -4000002
 -X14 >= -1
 X14 >= 0
 X14 + X15 >= 1
 997180 X14 - X159 + X161 >= 1
 -7002824 X14 + X159 - X161 >= -7002824
 -X15 >= -1
 X15 >= 0
 4000002 X15 - X160 + X161 >= 1
 -4000002 X15 + X160 - X161 >= -4000002
 -X16 >= -1
 X16 >= 0
 X16 + X17 >= 1
 4000002 X16 - X162 + X164 >= 1
 -4000002 X16 + X162 - X164 >= -4000002
 -X17 >= -1
 X17 >= 0
 985164 X17 - X163 + X164 >= 1
 -7014840 X17 + X163 - X164 >= -7014840
 -X18 >= -1
 X18 >= 0
 X18 + X19 >= 1
 4000002 X18 - X165 + X167 >= 1
 -4000002 X18 + X165 - X167 >= -4000002
 -X19 >= -1
 X19 >= 0
 2322630 X19 - X166 + X167 >= 1
 -5677374 X19 + X166 - X167 >= -5677374
 -X20 >= -1
 X20 >= 0
 X20 + X21 >= 1
 4000002 X20 - X168 + X170 >= 1
 -4000002 X20 + X168 - X170 >= -4000002
 -X21 >= -1
 X21 >= 0
 2169866 X21 - X169 + X170 >= 1
 -5830138 X21 + X169 - X170 >= -5830138
 -X22 >= -1
 X22 >= 0
 X22 + X23 >= 1
 4000002 X22 - X171 + X173 >= 1
 -4000002 X22 + X171 - X173 >= -4000002
 -X23 >= -1
 X23 >= 0
 2491470 X23 - X172 + X173 >= 1
 -5508534 X23 + X172 - X173 >= -5508534
 -X24 >= -1
 X24 >= 0
 X24 + X25 >= 1
 4000002 X24 - X174 + X176 >= 1
 -4000002 X24 + X174 - X176 >= -4000002
 -X25 >= -1
 X25 >= 0
 661886 X25 - X175 + X176 >= 1
 -7338118 X25 + X175 - X176 >= -7338118
 -X26 >= -1
 X26 >= 0
 X26 + X27 >= 1
 4000002 X26 - X177 + X179 >= 1
 -4000002 X26 + X177 - X179 >= -4000002
 -X27 >= -1
 X27 >= 0
 3298540 X27 - X178 + X179 >= 1
 -4701464 X27 + X178 - X179 >= -4701464
 -X28 >= -1
 X28 >= 0
 X28 + X29 >= 1
 1081912 X28 - X180 + X182 >= 1
 -6918092 X28 + X180 - X182 >= -6918092
 -X29 >= -1
 X29 >= 0
 4000002 X29 - X181 + X182 >= 1
 -4000002 X29 + X181 - X182 >= -4000002
 -X30 >= -1
 X30 >= 0
 X30 + X31 >= 1
 4000002 X30 - X183 + X185 >= 1
 -4000002 X30 + X183 - X185 >= -4000002
 -X31 >= -1
 X31 >= 0
 213378 X31 - X184 + X185 >= 1
 -7786626 X31 + X184 - X185 >= -7786626
 -X32 >= -1
 X32 >= 0
 X32 + X33 >= 1
 4000002 X32 - X186 + X188 >= 1
 -4000002 X32 + X186 - X188 >= -4000002
 -X33 >= -1
 X33 >= 0
 1954 X33 - X187 + X188 >= 1
 -7998050 X33 + X187 - X188 >= -7998050
 -X34 >= -1
 X34 >= 0
 X34 + X35 >= 1
 4000002 X34 - X189 + X191 >= 1
 -4000002 X34 + X189 - X191 >= -4000002
 -X35 >= -1
 X35 >= 0
 1771482 X35 - X190 + X191 >= 1
 -6228522 X35 + X190 - X191 >= -6228522
 -X36 >= -1
 X36 >= 0
 X36 + X37 >= 1
 4000002 X36 - X192 + X194 >= 1
 -4000002 X36 + X192 - X194 >= -4000002
 -X37 >= -1
 X37 >= 0
 2340386 X37 - X193 + X194 >= 1
 -5659618 X37 + X193 - X194 >= -5659618
 -X38 >= -1
 X38 >= 0
 X38 + X39 >= 1
 4000002 X38 - X195 + X197 >= 1
 -4000002 X38 + X195 - X197 >= -4000002
 -X39 >= -1
 X39 >= 0
 3587106 X39 - X196 + X197 >= 1
 -4412898 X39 + X196 - X197 >= -4412898
 -X40 >= -1
 X40 >= 0
 X40 + X41 >= 1
 2361610 X40 - X198 + X200 >= 1
 -5638394 X40 + X198 - X200 >= -5638394
 -X41 >= -1
 X41 >= 0
 4000002 X41 - X199 + X200 >= 1
 -4000002 X41 + X199 - X200 >= -4000002
 -X42 >= -1
 X42 >= 0
 X42 + X43 >= 1
 2224088 X42 - X201 + X203 >= 1
 -5775916 X42 + X201 - X203 >= -5775916
 -X43 >= -1
 X43 >= 0
 4000002 X43 - X202 + X203 >= 1
 -4000002 X43 + X202 - X203 >= -4000002
 -X44 >= -1
 X44 >= 0
 X44 + X45 >= 1
 4000002 X44 - X204 + X206 >= 1
 -4000002 X44 + X204 - X206 >= -4000002
 -X45 >= -1
 X45 >= 0
 2081122 X45 - X205 + X206 >= 1
 -5918882 X45 + X205 - X206 >= -5918882
 -X46 >= -1
 X46 >= 0
 X46 + X47 >= 1
 4000002 X46 - X207 + X209 >= 1
 -4000002 X46 + X207 - X209 >= -4000002
 -X47 >= -1
 X47 >= 0
 3894278 X47 - X208 + X209 >= 1
 -4105726 X47 + X208 - X209 >= -4105726
 -X48 >= -1
 X48 >= 0
 X48 + X49 >= 1
 4000002 X48 - X210 + X212 >= 1
 -4000002 X48 + X210 - X212 >= -4000002
 -X49 >= -1
 X49 >= 0
 1225842 X49 - X211 + X212 >= 1
 -6774162 X49 + X211 - X212 >= -6774162
 -X50 >= -1
 X50 >= 0
 X50 + X51 >= 1
 4000002 X50 - X213 + X215 >= 1
 -4000002 X50 + X213 - X215 >= -4000002
 -X51 >= -1
 X51 >= 0
 1212278 X51 - X214 + X215 >= 1
 -6787726 X51 + X214 - X215 >= -6787726
 -X52 >= -1
 X52 >= 0
 X52 + X53 >= 1
 4000002 X52 - X216 + X218 >= 1
 -4000002 X52 + X216 - X218 >= -4000002
 -X53 >= -1
 X53 >= 0
 3833970 X53 - X217 + X218 >= 1
 -4166034 X53 + X217 - X218 >= -4166034
 -X54 >= -1
 X54 >= 0
 X54 + X55 >= 1
 4000002 X54 - X219 + X221 >= 1
 -4000002 X54 + X219 - X221 >= -4000002
 -X55 >= -1
 X55 >= 0
 512304 X55 - X220 + X221 >= 1
 -7487700 X55 + X220 - X221 >= -7487700
 -X56 >= -1
 X56 >= 0
 X56 + X57 >= 1
 2379040 X56 - X222 + X224 >= 1
 -5062230 X56 + X222 - X224 >= -5062230
 -X57 >= -1
 X57 >= 0
 3441268 X57 - X223 + X224 >= 1
 -4000002 X57 + X223 - X224 >= -4000002
 -X58 >= -1
 X58 >= 0
 X58 + X59 >= 1
 2635430 X58 - X225 + X227 >= 1
 -4805840 X58 + X225 - X227 >= -4805840
 -X59 >= -1
 X59 >= 0
 3441268 X59 - X226 + X227 >= 1
 -4000002 X59 + X226 - X227 >= -4000002
 -X60 >= -1
 X60 >= 0
 X60 + X61 >= 1
 4000002 X60 - X228 + X230 >= 1
 -4000002 X60 + X228 - X230 >= -4000002
 -X61 >= -1
 X61 >= 0
 1453322 X61 - X229 + X230 >= 1
 -6546682 X61 + X229 - X230 >= -6546682
 -X62 >= -1
 X62 >= 0
 X62 + X63 >= 1
 4000002 X62 - X231 + X233 >= 1
 -4000002 X62 + X231 - X233 >= -4000002
 -X63 >= -1
 X63 >= 0
 3938 X63 - X232 + X233 >= 1
 -7996066 X63 + X232 - X233 >= -7996066
 -X64 >= -1
 X64 >= 0
 X64 + X65 >= 1
 4000002 X64 - X234 + X236 >= 1
 -4000002 X64 + X234 - X236 >= -4000002
 -X65 >= -1
 X65 >= 0
 2050388 X65 - X235 + X236 >= 1
 -5949616 X65 + X235 - X236 >= -5949616
 -X66 >= -1
 X66 >= 0
 X66 + X67 >= 1
 4000002 X66 - X237 + X239 >= 1
 -4000002 X66 + X237 - X239 >= -4000002
 -X67 >= -1
 X67 >= 0
 534394 X67 - X238 + X239 >= 1
 -7465610 X67 + X238 - X239 >= -7465610
 -X68 >= -1
 X68 >= 0
 X68 + X69 >= 1
 3728836 X68 - X240 + X242 >= 1
 -4271168 X68 + X240 - X242 >= -4271168
 -X69 >= -1
 X69 >= 0
 4000002 X69 - X241 + X242 >= 1
 -4000002 X69 + X241 - X242 >= -4000002
 -X70 >= -1
 X70 >= 0
 X70 + X71 >= 1
 720904 X70 - X243 + X245 >= 1
 -7279100 X70 + X243 - X245 >= -7279100
 -X71 >= -1
 X71 >= 0
 4000002 X71 - X244 + X245 >= 1
 -4000002 X71 + X244 - X245 >= -4000002
 -X72 >= -1
 X72 >= 0
 X72 + X73 >= 1
 2988174 X72 - X246 + X248 >= 1
 -5011830 X72 + X246 - X248 >= -5011830
 -X73 >= -1
 X73 >= 0
 4000002 X73 - X247 + X248 >= 1
 -4000002 X73 + X247 - X248 >= -4000002
 -X74 >= -1
 X74 >= 0
 X74 + X75 >= 1
 4000002 X74 - X249 + X251 >= 1
 -4000002 X74 + X249 - X251 >= -4000002
 -X75 >= -1
 X75 >= 0
 1938734 X75 - X250 + X251 >= 1
 -6061270 X75 + X250 - X251 >= -6061270
 -X76 >= -1
 X76 >= 0
 X76 + X77 >= 1
 4000002 X76 - X252 + X254 >= 1
 -4000002 X76 + X252 - X254 >= -4000002
 -X77 >= -1
 X77 >= 0
 18534 X77 - X253 + X254 >= 1
 -7981470 X77 + X253 - X254 >= -7981470
 -X78 >= -1
 X78 >= 0
 X78 + X79 >= 1
 4000002 X78 - X255 + X257 >= 1
 -4000002 X78 + X255 - X257 >= -4000002
 -X79 >= -1
 X79 >= 0
 2016220 X79 - X256 + X257 >= 1
 -5983784 X79 + X256 - X257 >= -5983784
 -X80 >= -1
 X80 >= 0
 X80 + X81 >= 1
 241288 X80 - X258 + X260 >= 1
 -7758716 X80 + X258 - X260 >= -7758716
 -X81 >= -1
 X81 >= 0
 4000002 X81 - X259 + X260 >= 1
 -4000002 X81 + X259 - X260 >= -4000002
 -X82 >= -1
 X82 >= 0
 X82 + X83 >= 1
 4000002 X82 - X261 + X263 >= 1
 -4000002 X82 + X261 - X263 >= -4000002
 -X83 >= -1
 X83 >= 0
 2242056 X83 - X262 + X263 >= 1
 -5757948 X83 + X262 - X263 >= -5757948
 -X84 >= -1
 X84 >= 0
 X84 + X85 >= 1
 980 X84 - X264 + X266 >= 1
 -7999024 X84 + X264 - X266 >= -7999024
 -X85 >= -1
 X85 >= 0
 4000002 X85 - X265 + X266 >= 1
 -4000002 X85 + X265 - X266 >= -4000002
 -X86 >= -1
 X86 >= 0
 X86 + X87 >= 1
 2483628 X86 - X267 + X269 >= 1
 -5516376 X86 + X267 - X269 >= -5516376
 -X87 >= -1
 X87 >= 0
 4000002 X87 - X268 + X269 >= 1
 -4000002 X87 + X268 - X269 >= -4000002
 -X88 >= -1
 X88 >= 0
 X88 + X89 >= 1
 1440770 X88 - X270 + X272 >= 1
 -6559234 X88 + X270 - X272 >= -6559234
 -X89 >= -1
 X89 >= 0
 4000002 X89 - X271 + X272 >= 1
 -4000002 X89 + X271 - X272 >= -4000002
 -X90 >= -1
 X90 >= 0
 X90 + X91 >= 1
 269282 X90 - X273 + X275 >= 1
 -7730722 X90 + X273 - X275 >= -7730722
 -X91 >= -1
 X91 >= 0
 4000002 X91 - X274 + X275 >= 1
 -4000002 X91 + X274 - X275 >= -4000002
 -X92 >= -1
 X92 >= 0
 X92 + X93 >= 1
 4000002 X92 - X276 + X278 >= 1
 -4000002 X92 + X276 - X278 >= -4000002
 -X93 >= -1
 X93 >= 0
 2251578 X93 - X277 + X278 >= 1
 -5748426 X93 + X277 - X278 >= -5748426
 -X94 >= -1
 X94 >= 0
 X94 + X95 >= 1
 4000002 X94 - X279 + X281 >= 1
 -4000002 X94 + X279 - X281 >= -4000002
 -X95 >= -1
 X95 >= 0
 205886 X95 - X280 + X281 >= 1
 -7794118 X95 + X280 - X281 >= -7794118
 -X96 >= -1
 X96 >= 0
 X96 + X97 >= 1
 4000002 X96 - X282 + X284 >= 1
 -4000002 X96 + X282 - X284 >= -4000002
 -X97 >= -1
 X97 >= 0
 2382684 X97 - X283 + X284 >= 1
 -5617320 X97 + X283 - X284 >= -5617320
 -X98 >= -1
 X98 >= 0
 X98 + X99 >= 1
 4000002 X98 - X285 + X287 >= 1
 -4000002 X98 + X285 - X287 >= -4000002
 -X99 >= -1
 X99 >= 0
 1439460 X99 - X286 + X287 >= 1
 -6560544 X99 + X286 - X287 >= -6560544
 -X100 >= -1
 X100 >= 0
 X100 + X101 >= 1
 4000002 X100 - X288 + X290 >= 1
 -4000002 X100 + X288 - X290 >= -4000002
 -X101 >= -1
 X101 >= 0
 2224250 X101 - X289 + X290 >= 1
 -5775754 X101 + X289 - X290 >= -5775754
 -X102 >= -1
 X102 >= 0
 X102 + X103 >= 1
 4000002 X102 - X291 + X293 >= 1
 -4000002 X102 + X291 - X293 >= -4000002
 -X103 >= -1
 X103 >= 0
 3786456 X103 - X292 + X293 >= 1
 -4213548 X103 + X292 - X293 >= -4213548
 -X104 >= -1
 X104 >= 0
 X104 + X105 >= 1
 4000002 X104 - X294 + X296 >= 1
 -4000002 X104 + X294 - X296 >= -4000002
 -X105 >= -1
 X105 >= 0
 2840456 X105 - X295 + X296 >= 1
 -5159548 X105 + X295 - X296 >= -5159548
 -X106 >= -1
 X106 >= 0
 X106 + X107 >= 1
 4000002 X106 - X297 + X299 >= 1
 -4000002 X106 + X297 - X299 >= -4000002
 -X107 >= -1
 X107 >= 0
 20750 X107 - X298 + X299 >= 1
 -7979254 X107 + X298 - X299 >= -7979254
 -X108 >= -1
 X108 >= 0
 X108 + X109 >= 1
 4000002 X108 - X300 + X302 >= 1
 -4000002 X108 + X300 - X302 >= -4000002
 -X109 >= -1
 X109 >= 0
 2817414 X109 - X301 + X302 >= 1
 -5182590 X109 + X301 - X302 >= -5182590
 -X110 >= -1
 X110 >= 0
 X110 + X111 >= 1
 4000002 X110 - X303 + X305 >= 1
 -4000002 X110 + X303 - X305 >= -4000002
 -X111 >= -1
 X111 >= 0
 665328 X111 - X304 + X305 >= 1
 -7334676 X111 + X304 - X305 >= -7334676
 -X112 >= -1
 X112 >= 0
 X112 + X113 >= 1
 4000002 X112 - X306 + X308 >= 1
 -4000002 X112 + X306 - X308 >= -4000002
 -X113 >= -1
 X113 >= 0
 1873796 X113 - X307 + X308 >= 1
 -6126208 X113 + X307 - X308 >= -6126208
 -X114 >= -1
 X114 >= 0
 X114 + X115 >= 1
 4000002 X114 - X309 + X311 >= 1
 -4000002 X114 + X309 - X311 >= -4000002
 -X115 >= -1
 X115 >= 0
 358850 X115 - X310 + X311 >= 1
 -7641154 X115 + X310 - X311 >= -7641154
 -X116 >= -1
 X116 >= 0
 X116 + X117 >= 1
 3421644 X116 - X312 + X314 >= 1
 -4000002 X116 + X312 - X314 >= -4000002
 -X117 >= -1
 X117 >= 0
 3069956 X117 - X313 + X314 >= 1
 -4351690 X117 + X313 - X314 >= -4351690
 -X118 >= -1
 X118 >= 0
 X118 + X119 >= 1
 3179996 X118 - X315 + X317 >= 1
 -4241650 X118 + X315 - X317 >= -4241650
 -X119 >= -1
 X119 >= 0
 3421644 X119 - X316 + X317 >= 1
 -4000002 X119 + X316 - X317 >= -4000002
 -X120 >= -1
 X120 >= 0
 X120 + X121 >= 1
 1943278 X120 - X318 + X320 >= 1
 -6056726 X120 + X318 - X320 >= -6056726
 -X121 >= -1
 X121 >= 0
 4000002 X121 - X319 + X320 >= 1
 -4000002 X121 + X319 - X320 >= -4000002
 -X122 >= -1
 X122 >= 0
 X122 + X123 >= 1
 576346 X122 - X321 + X323 >= 1
 -7423658 X122 + X321 - X323 >= -7423658
 -X123 >= -1
 X123 >= 0
 4000002 X123 - X322 + X323 >= 1
 -4000002 X123 + X322 - X323 >= -4000002
 -X124 >= -1
 X124 >= 0
 X124 + X125 >= 1
 4000002 X124 - X324 + X326 >= 1
 -4000002 X124 + X324 - X326 >= -4000002
 -X125 >= -1
 X125 >= 0
 1111822 X125 - X325 + X326 >= 1
 -6888182 X125 + X325 - X326 >= -6888182
 -X126 >= -1
 X126 >= 0
 X126 + X127 >= 1
 1514478 X126 - X327 + X329 >= 1
 -6485526 X126 + X327 - X329 >= -6485526
 -X127 >= -1
 X127 >= 0
 4000002 X127 - X328 + X329 >= 1
 -4000002 X127 + X328 - X329 >= -4000002
 -X128 >= -1
 X128 >= 0
 X128 + X129 >= 1
 4000002 X128 - X330 + X332 >= 1
 -4000002 X128 + X330 - X332 >= -4000002
 -X129 >= -1
 X129 >= 0
 1915238 X129 - X331 + X332 >= 1
 -6084766 X129 + X331 - X332 >= -6084766
 -X130 >= -1
 X130 >= 0
 X130 + X131 >= 1
 4000002 X130 - X333 + X335 >= 1
 -4000002 X130 + X333 - X335 >= -4000002
 -X131 >= -1
 X131 >= 0
 432480 X131 - X334 + X335 >= 1
 -7567524 X131 + X334 - X335 >= -7567524
 -X132 >= -1
 X132 >= 0
 X132 + X133 >= 1
 782566 X132 - X336 + X338 >= 1
 -7217438 X132 + X336 - X338 >= -7217438
 -X133 >= -1
 X133 >= 0
 4000002 X133 - X337 + X338 >= 1
 -4000002 X133 + X337 - X338 >= -4000002
 -X134 >= -1
 X134 >= 0
 X134 + X135 >= 1
 4000002 X134 - X339 + X341 >= 1
 -4000002 X134 + X339 - X341 >= -4000002
 -X135 >= -1
 X135 >= 0
 3923662 X135 - X340 + X341 >= 1
 -4076342 X135 + X340 - X341 >= -4076342
 -X136 >= -4000000
 X136 >= 0
 -X137 >= -4000000
 X137 >= 0
 -X138 >= -2619948
 X138 >= -1380052
 -X138 - X136 = -2619948
 -X139 >= -1380052
 X139 >= -2619948
 -X139 + X136 = 2619948
 -X140 >= -2619948
 X140 >= -1380052
 X140 - X139 >= 0
 X140 - X138 >= 0
 -X141 >= -2439745
 X141 >= -1560255
 -X141 - X137 = -2439745
 -X142 >= -1560255
 X142 >= -2439745
 -X142 + X137 = 2439745
 -X143 >= -2439745
 X143 >= -1560255
 X143 + X140 >= 436515
 X143 - X142 >= 0
 X143 - X141 >= 0
 -X144 >= -40698
 X144 >= -3959302
 -X144 - X136 = -40698
 -X145 >= -3959302
 X145 >= -40698
 -X145 + X136 = 40698
 -X146 >= -3959302
 X146 >= -40698
 X146 - X145 >= 0
 X146 - X144 >= 0
 -X147 >= -3202257
 X147 >= -797743
 -X147 - X137 = -3202257
 -X148 >= -797743
 X148 >= -3202257
 -X148 + X137 = 3202257
 -X149 >= -3202257
 X149 >= -797743
 X149 + X146 >= 281885
 X149 - X148 >= 0
 X149 - X147 >= 0
 -X150 >= -3917917
 X150 >= -82083
 -X150 - X136 = -3917917
 -X151 >= -82083
 X151 >= -3917917
 -X151 + X136 = 3917917
 -X152 >= -3917917
 X152 >= -82083
 X152 - X151 >= 0
 X152 - X150 >= 0
 -X153 >= -3792648
 X153 >= -207352
 -X153 - X137 = -3792648
 -X154 >= -207352
 X154 >= -3792648
 -X154 + X137 = 3792648
 -X155 >= -3792648
 X155 >= -207352
 X155 + X152 >= 759495
 X155 - X154 >= 0
 X155 - X153 >= 0
 -X156 >= -165939
 X156 >= -3834061
 -X156 - X136 = -165939
 -X157 >= -3834061
 X157 >= -165939
 -X157 + X136 = 165939
 -X158 >= -3834061
 X158 >= -165939
 X158 - X157 >= 0
 X158 - X156 >= 0
 -X159 >= -498589
 X159 >= -3501411
 -X159 - X137 = -498589
 -X160 >= -3501411
 X160 >= -498589
 -X160 + X137 = 498589
 -X161 >= -3501411
 X161 >= -498589
 X161 + X158 >= 908674
 X161 - X160 >= 0
 X161 - X159 >= 0
 -X162 >= -3507419
 X162 >= -492581
 -X162 - X136 = -3507419
 -X163 >= -492581
 X163 >= -3507419
 -X163 + X136 = 3507419
 -X164 >= -3507419
 X164 >= -492581
 X164 - X163 >= 0
 X164 - X162 >= 0
 -X165 >= -2838686
 X165 >= -1161314
 -X165 - X137 = -2838686
 -X166 >= -1161314
 X166 >= -2838686
 -X166 + X137 = 2838686
 -X167 >= -2838686
 X167 >= -1161314
 X167 + X164 >= 618019
 X167 - X166 >= 0
 X167 - X165 >= 0
 -X168 >= -2915068
 X168 >= -1084932
 -X168 - X136 = -2915068
 -X169 >= -1084932
 X169 >= -2915068
 -X169 + X136 = 2915068
 -X170 >= -2915068
 X170 >= -1084932
 X170 - X169 >= 0
 X170 - X168 >= 0
 -X171 >= -2754266
 X171 >= -1245734
 -X171 - X137 = -2754266
 -X172 >= -1245734
 X172 >= -2754266
 -X172 + X137 = 2754266
 -X173 >= -2754266
 X173 >= -1245734
 X173 + X170 >= 417114
 X173 - X172 >= 0
 X173 - X171 >= 0
 -X174 >= -3669058
 X174 >= -330942
 -X174 - X136 = -3669058
 -X175 >= -330942
 X175 >= -3669058
 -X175 + X136 = 3669058
 -X176 >= -3669058
 X176 >= -330942
 X176 - X175 >= 0
 X176 - X174 >= 0
 -X177 >= -2350731
 X177 >= -1649269
 -X177 - X137 = -2350731
 -X178 >= -1649269
 X178 >= -2350731
 -X178 + X137 = 2350731
 -X179 >= -2350731
 X179 >= -1649269
 X179 + X176 >= 944335
 X179 - X178 >= 0
 X179 - X177 >= 0
 -X180 >= -540955
 X180 >= -3459045
 -X180 - X136 = -540955
 -X181 >= -3459045
 X181 >= -540955
 -X181 + X136 = 540955
 -X182 >= -3459045
 X182 >= -540955
 X182 - X181 >= 0
 X182 - X180 >= 0
 -X183 >= -3893312
 X183 >= -106688
 -X183 - X137 = -3893312
 -X184 >= -106688
 X184 >= -3893312
 -X184 + X137 = 3893312
 -X185 >= -3893312
 X185 >= -106688
 X185 + X182 >= 1098965
 X185 - X184 >= 0
 X185 - X183 >= 0
 -X186 >= -3999024
 X186 >= -976
 -X186 - X136 = -3999024
 -X187 >= -976
 X187 >= -3999024
 -X187 + X136 = 3999024
 -X188 >= -3999024
 X188 >= -976
 X188 - X187 >= 0
 X188 - X186 >= 0
 -X189 >= -3114260
 X189 >= -885740
 -X189 - X137 = -3114260
 -X190 >= -885740
 X190 >= -3114260
 -X190 + X137 = 3114260
 -X191 >= -3114260
 X191 >= -885740
 X191 + X188 >= 149162
 X191 - X190 >= 0
 X191 - X189 >= 0
 -X192 >= -2829808
 X192 >= -1170192
 -X192 - X136 = -2829808
 -X193 >= -1170192
 X193 >= -2829808
 -X193 + X136 = 2829808
 -X194 >= -2829808
 X194 >= -1170192
 X194 - X193 >= 0
 X194 - X192 >= 0
 -X195 >= -2206448
 X195 >= -1793552
 -X195 - X137 = -2206448
 -X196 >= -1793552
 X196 >= -2206448
 -X196 + X137 = 2206448
 -X197 >= -2206448
 X197 >= -1793552
 X197 + X194 >= 306686
 X197 - X196 >= 0
 X197 - X195 >= 0
 -X198 >= -1180804
 X198 >= -2819196
 -X198 - X136 = -1180804
 -X199 >= -2819196
 X199 >= -1180804
 -X199 + X136 = 1180804
 -X200 >= -2819196
 X200 >= -1180804
 X200 - X199 >= 0
 X200 - X198 >= 0
 -X201 >= -1112043
 X201 >= -2887957
 -X201 - X137 = -1112043
 -X202 >= -2887957
 X202 >= -1112043
 -X202 + X137 = 1112043
 -X203 >= -2887957
 X203 >= -1112043
 X203 + X200 >= 719647
 X203 - X202 >= 0
 X203 - X201 >= 0
 -X204 >= -2959440
 X204 >= -1040560
 -X204 - X136 = -2959440
 -X205 >= -1040560
 X205 >= -2959440
 -X205 + X136 = 2959440
 -X206 >= -2959440
 X206 >= -1040560
 X206 - X205 >= 0
 X206 - X204 >= 0
 -X207 >= -2052862
 X207 >= -1947138
 -X207 - X137 = -2052862
 -X208 >= -1947138
 X208 >= -2052862
 -X208 + X137 = 2052862
 -X209 >= -2052862
 X209 >= -1947138
 X209 + X206 >= 82258
 X209 - X208 >= 0
 X209 - X207 >= 0
 -X210 >= -3387080
 X210 >= -612920
 -X210 - X136 = -3387080
 -X211 >= -612920
 X211 >= -3387080
 -X211 + X136 = 3387080
 -X212 >= -3387080
 X212 >= -612920
 X212 - X211 >= 0
 X212 - X210 >= 0
 -X213 >= -3393862
 X213 >= -606138
 -X213 - X137 = -3393862
 -X214 >= -606138
 X214 >= -3393862
 -X214 + X137 = 3393862
 -X215 >= -3393862
 X215 >= -606138
 X215 + X212 >= 694494
 X215 - X214 >= 0
 X215 - X213 >= 0
 -X216 >= -2083016
 X216 >= -1916984
 -X216 - X136 = -2083016
 -X217 >= -1916984
 X217 >= -2083016
 -X217 + X136 = 2083016
 -X218 >= -2083016
 X218 >= -1916984
 X218 - X217 >= 0
 X218 - X216 >= 0
 -X219 >= -3743849
 X219 >= -256151
 -X219 - X137 = -3743849
 -X220 >= -256151
 X220 >= -3743849
 -X220 + X137 = 3743849
 -X221 >= -3743849
 X221 >= -256151
 X221 + X218 >= 703469
 X221 - X220 >= 0
 X221 - X219 >= 0
 -X222 >= -1468886
 X222 >= -2531114
 -X222 - X136 = -1468886
 -X223 >= -2531114
 X223 >= -1468886
 -X223 + X136 = 1468886
 -X224 >= -2531114
 X224 >= -910152
 X224 - X223 >= 0
 X224 - X222 >= 0
 -X225 >= -1597081
 X225 >= -2402919
 -X225 - X137 = -1597081
 -X226 >= -2402919
 X226 >= -1597081
 -X226 + X137 = 1597081
 -X227 >= -2402919
 X227 >= -1038347
 X227 + X224 >= 1492767
 X227 - X226 >= 0
 X227 - X225 >= 0
 -X228 >= -3273340
 X228 >= -726660
 -X228 - X136 = -3273340
 -X229 >= -726660
 X229 >= -3273340
 -X229 + X136 = 3273340
 -X230 >= -3273340
 X230 >= -726660
 X230 - X229 >= 0
 X230 - X228 >= 0
 -X231 >= -3998032
 X231 >= -1968
 -X231 - X137 = -3998032
 -X232 >= -1968
 X232 >= -3998032
 -X232 + X137 = 3998032
 -X233 >= -3998032
 X233 >= -1968
 X233 + X230 >= 342934
 X233 - X232 >= 0
 X233 - X231 >= 0
 -X234 >= -2974807
 X234 >= -1025193
 -X234 - X136 = -2974807
 -X235 >= -1025193
 X235 >= -2974807
 -X235 + X136 = 2974807
 -X236 >= -2974807
 X236 >= -1025193
 X236 - X235 >= 0
 X236 - X234 >= 0
 -X237 >= -3732804
 X237 >= -267196
 -X237 - X137 = -3732804
 -X238 >= -267196
 X238 >= -3732804
 -X238 + X137 = 3732804
 -X239 >= -3732804
 X239 >= -267196
 X239 + X236 >= 220829
 X239 - X238 >= 0
 X239 - X237 >= 0
 -X240 >= -1864417
 X240 >= -2135583
 -X240 - X136 = -1864417
 -X241 >= -2135583
 X241 >= -1864417
 -X241 + X136 = 1864417
 -X242 >= -2135583
 X242 >= -1864417
 X242 - X241 >= 0
 X242 - X240 >= 0
 -X243 >= -360451
 X243 >= -3639549
 -X243 - X137 = -360451
 -X244 >= -3639549
 X244 >= -360451
 -X244 + X137 = 360451
 -X245 >= -3639549
 X245 >= -360451
 X245 + X242 >= 1207156
 X245 - X244 >= 0
 X245 - X243 >= 0
 -X246 >= -1494086
 X246 >= -2505914
 -X246 - X136 = -1494086
 -X247 >= -2505914
 X247 >= -1494086
 -X247 + X136 = 1494086
 -X248 >= -2505914
 X248 >= -1494086
 X248 - X247 >= 0
 X248 - X246 >= 0
 -X249 >= -3030634
 X249 >= -969366
 -X249 - X137 = -3030634
 -X250 >= -969366
 X250 >= -3030634
 -X250 + X137 = 3030634
 -X251 >= -3030634
 X251 >= -969366
 X251 + X248 >= 1280238
 X251 - X250 >= 0
 X251 - X249 >= 0
 -X252 >= -3990734
 X252 >= -9266
 -X252 - X136 = -3990734
 -X253 >= -9266
 X253 >= -3990734
 -X253 + X136 = 3990734
 -X254 >= -3990734
 X254 >= -9266
 X254 - X253 >= 0
 X254 - X252 >= 0
 -X255 >= -2991891
 X255 >= -1008109
 -X255 - X137 = -2991891
 -X256 >= -1008109
 X256 >= -2991891
 -X256 + X137 = 2991891
 -X257 >= -2991891
 X257 >= -1008109
 X257 + X254 >= 114081
 X257 - X256 >= 0
 X257 - X255 >= 0
 -X258 >= -120643
 X258 >= -3879357
 -X258 - X136 = -120643
 -X259 >= -3879357
 X259 >= -120643
 -X259 + X136 = 120643
 -X260 >= -3879357
 X260 >= -120643
 X260 - X259 >= 0
 X260 - X258 >= 0
 -X261 >= -2878973
 X261 >= -1121027
 -X261 - X137 = -2878973
 -X262 >= -1121027
 X262 >= -2878973
 -X262 + X137 = 2878973
 -X263 >= -2878973
 X263 >= -1121027
 X263 + X260 >= 335688
 X263 - X262 >= 0
 X263 - X261 >= 0
 -X264 >= -489
 X264 >= -3999511
 -X264 - X136 = -489
 -X265 >= -3999511
 X265 >= -489
 -X265 + X136 = 489
 -X266 >= -3999511
 X266 >= -489
 X266 - X265 >= 0
 X266 - X264 >= 0
 -X267 >= -1241813
 X267 >= -2758187
 -X267 - X137 = -1241813
 -X268 >= -2758187
 X268 >= -1241813
 -X268 + X137 = 1241813
 -X269 >= -2758187
 X269 >= -1241813
 X269 + X266 >= 1457663
 X269 - X268 >= 0
 X269 - X267 >= 0
 -X270 >= -720384
 X270 >= -3279616
 -X270 - X136 = -720384
 -X271 >= -3279616
 X271 >= -720384
 -X271 + X136 = 720384
 -X272 >= -3279616
 X272 >= -720384
 X272 - X271 >= 0
 X272 - X270 >= 0
 -X273 >= -134640
 X273 >= -3865360
 -X273 - X137 = -134640
 -X274 >= -3865360
 X274 >= -134640
 -X274 + X137 = 134640
 -X275 >= -3865360
 X275 >= -134640
 X275 + X272 >= 718178
 X275 - X274 >= 0
 X275 - X273 >= 0
 -X276 >= -2874212
 X276 >= -1125788
 -X276 - X136 = -2874212
 -X277 >= -1125788
 X277 >= -2874212
 -X277 + X136 = 2874212
 -X278 >= -2874212
 X278 >= -1125788
 X278 - X277 >= 0
 X278 - X276 >= 0
 -X279 >= -3897058
 X279 >= -102942
 -X279 - X137 = -3897058
 -X280 >= -102942
 X280 >= -3897058
 -X280 + X137 = 3897058
 -X281 >= -3897058
 X281 >= -102942
 X281 + X278 >= 240938
 X281 - X280 >= 0
 X281 - X279 >= 0
 -X282 >= -2808659
 X282 >= -1191341
 -X282 - X136 = -2808659
 -X283 >= -1191341
 X283 >= -2808659
 -X283 + X136 = 2808659
 -X284 >= -2808659
 X284 >= -1191341
 X284 - X283 >= 0
 X284 - X282 >= 0
 -X285 >= -3280271
 X285 >= -719729
 -X285 - X137 = -3280271
 -X286 >= -719729
 X286 >= -3280271
 -X286 + X137 = 3280271
 -X287 >= -3280271
 X287 >= -719729
 X287 + X284 >= 522326
 X287 - X286 >= 0
 X287 - X285 >= 0
 -X288 >= -2887876
 X288 >= -1112124
 -X288 - X136 = -2887876
 -X289 >= -1112124
 X289 >= -2887876
 -X289 + X136 = 2887876
 -X290 >= -2887876
 X290 >= -1112124
 X290 - X289 >= 0
 X290 - X288 >= 0
 -X291 >= -2106773
 X291 >= -1893227
 -X291 - X137 = -2106773
 -X292 >= -1893227
 X292 >= -2106773
 -X292 + X137 = 2106773
 -X293 >= -2106773
 X293 >= -1893227
 X293 + X290 >= 148943
 X293 - X292 >= 0
 X293 - X291 >= 0
 -X294 >= -2579773
 X294 >= -1420227
 -X294 - X136 = -2579773
 -X295 >= -1420227
 X295 >= -2579773
 -X295 + X136 = 2579773
 -X296 >= -2579773
 X296 >= -1420227
 X296 - X295 >= 0
 X296 - X294 >= 0
 -X297 >= -3989626
 X297 >= -10374
 -X297 - X137 = -3989626
 -X298 >= -10374
 X298 >= -3989626
 -X298 + X137 = 3989626
 -X299 >= -3989626
 X299 >= -10374
 X299 + X296 >= 415917
 X299 - X298 >= 0
 X299 - X297 >= 0
 -X300 >= -2591294
 X300 >= -1408706
 -X300 - X136 = -2591294
 -X301 >= -1408706
 X301 >= -2591294
 -X301 + X136 = 2591294
 -X302 >= -2591294
 X302 >= -1408706
 X302 - X301 >= 0
 X302 - X300 >= 0
 -X303 >= -3667337
 X303 >= -332663
 -X303 - X137 = -3667337
 -X304 >= -332663
 X304 >= -3667337
 -X304 + X137 = 3667337
 -X305 >= -3667337
 X305 >= -332663
 X305 + X302 >= 271703
 X305 - X304 >= 0
 X305 - X303 >= 0
 -X306 >= -3063103
 X306 >= -936897
 -X306 - X136 = -3063103
 -X307 >= -936897
 X307 >= -3063103
 -X307 + X136 = 3063103
 -X308 >= -3063103
 X308 >= -936897
 X308 - X307 >= 0
 X308 - X306 >= 0
 -X309 >= -3820576
 X309 >= -179424
 -X309 - X137 = -3820576
 -X310 >= -179424
 X310 >= -3820576
 -X310 + X137 = 3820576
 -X311 >= -3820576
 X311 >= -179424
 X311 + X308 >= 56199
 X311 - X310 >= 0
 X311 - X309 >= 0
 -X312 >= -2175844
 X312 >= -1824156
 -X312 - X136 = -2175844
 -X313 >= -1824156
 X313 >= -2175844
 -X313 + X136 = 2175844
 -X314 >= -2175844
 X314 >= -1245798
 X314 - X313 >= 0
 X314 - X312 >= 0
 -X315 >= -1879176
 X315 >= -2120824
 -X315 - X137 = -1879176
 -X316 >= -2120824
 X316 >= -1879176
 -X316 + X137 = 1879176
 -X317 >= -2120824
 X317 >= -1300818
 X317 + X314 >= 875026
 X317 - X316 >= 0
 X317 - X315 >= 0
 -X318 >= -971638
 X318 >= -3028362
 -X318 - X136 = -971638
 -X319 >= -3028362
 X319 >= -971638
 -X319 + X136 = 971638
 -X320 >= -3028362
 X320 >= -971638
 X320 - X319 >= 0
 X320 - X318 >= 0
 -X321 >= -288172
 X321 >= -3711828
 -X321 - X137 = -288172
 -X322 >= -3711828
 X322 >= -288172
 -X322 + X137 = 288172
 -X323 >= -3711828
 X323 >= -288172
 X323 + X320 >= 386656
 X323 - X322 >= 0
 X323 - X321 >= 0
 -X324 >= -3444090
 X324 >= -555910
 -X324 - X136 = -3444090
 -X325 >= -555910
 X325 >= -3444090
 -X325 + X136 = 3444090
 -X326 >= -3444090
 X326 >= -555910
 X326 - X325 >= 0
 X326 - X324 >= 0
 -X327 >= -757238
 X327 >= -3242762
 -X327 - X137 = -757238
 -X328 >= -3242762
 X328 >= -757238
 -X328 + X137 = 757238
 -X329 >= -3242762
 X329 >= -757238
 X329 + X326 >= 1756808
 X329 - X328 >= 0
 X329 - X327 >= 0
 -X330 >= -3042382
 X330 >= -957618
 -X330 - X136 = -3042382
 -X331 >= -957618
 X331 >= -3042382
 -X331 + X136 = 3042382
 -X332 >= -3042382
 X332 >= -957618
 X332 - X331 >= 0
 X332 - X330 >= 0
 -X333 >= -3783761
 X333 >= -216239
 -X333 - X137 = -3783761
 -X334 >= -216239
 X334 >= -3783761
 -X334 + X137 = 3783761
 -X335 >= -3783761
 X335 >= -216239
 X335 + X332 >= 102297
 X335 - X334 >= 0
 X335 - X333 >= 0
 -X336 >= -391282
 X336 >= -3608718
 -X336 - X136 = -391282
 -X337 >= -3608718
 X337 >= -391282
 -X337 + X136 = 391282
 -X338 >= -3608718
 X338 >= -391282
 X338 - X337 >= 0
 X338 - X336 >= 0
 -X339 >= -2038170
 X339 >= -1961830
 -X339 - X137 = -2038170
 -X340 >= -1961830
 X340 >= -2038170
 -X340 + X137 = 2038170
 -X341 >= -2038170
 X341 >= -1961830
 X341 + X338 >= 1052099
 X341 - X340 >= 0
 X341 - X339 >= 0
Bounds
 0 <= X_1 <= 0
 0 <= X0 <= 1
 0 <= X1 <= 1
 0 <= X2 <= 1
 0 <= X3 <= 1
 0 <= X4 <= 1
 0 <= X5 <= 1
 0 <= X6 <= 1
 0 <= X7 <= 1
 0 <= X8 <= 1
 0 <= X9 <= 1
 0 <= X10 <= 1
 0 <= X11 <= 1
 0 <= X12 <= 1
 0 <= X13 <= 1
 0 <= X14 <= 1
 0 <= X15 <= 1
 0 <= X16 <= 1
 0 <= X17 <= 1
 0 <= X18 <= 1
 0 <= X19 <= 1
 0 <= X20 <= 1
 0 <= X21 <= 1
 0 <= X22 <= 1
 0 <= X23 <= 1
 0 <= X24 <= 1
 0 <= X25 <= 1
 0 <= X26 <= 1
 0 <= X27 <= 1
 0 <= X28 <= 1
 0 <= X29 <= 1
 0 <= X30 <= 1
 0 <= X31 <= 1
 0 <= X32 <= 1
 0 <= X33 <= 1
 0 <= X34 <= 1
 0 <= X35 <= 1
 0 <= X36 <= 1
 0 <= X37 <= 1
 0 <= X38 <= 1
 0 <= X39 <= 1
 0 <= X40 <= 1
 0 <= X41 <= 1
 0 <= X42 <= 1
 0 <= X43 <= 1
 0 <= X44 <= 1
 0 <= X45 <= 1
 0 <= X46 <= 1
 0 <= X47 <= 1
 0 <= X48 <= 1
 0 <= X49 <= 1
 0 <= X50 <= 1
 0 <= X51 <= 1
 0 <= X52 <= 1
 0 <= X53 <= 1
 0 <= X54 <= 1
 0 <= X55 <= 1
 0 <= X56 <= 1
 0 <= X57 <= 1
 0 <= X58 <= 1
 0 <= X59 <= 1
 0 <= X60 <= 1
 0 <= X61 <= 1
 0 <= X62 <= 1
 0 <= X63 <= 1
 0 <= X64 <= 1
 0 <= X65 <= 1
 0 <= X66 <= 1
 0 <= X67 <= 1
 0 <= X68 <= 1
 0 <= X69 <= 1
 0 <= X70 <= 1
 0 <= X71 <= 1
 0 <= X72 <= 1
 0 <= X73 <= 1
 0 <= X74 <= 1
 0 <= X75 <= 1
 0 <= X76 <= 1
 0 <= X77 <= 1
 0 <= X78 <= 1
 0 <= X79 <= 1
 0 <= X80 <= 1
 0 <= X81 <= 1
 0 <= X82 <= 1
 0 <= X83 <= 1
 0 <= X84 <= 1
 0 <= X85 <= 1
 0 <= X86 <= 1
 0 <= X87 <= 1
 0 <= X88 <= 1
 0 <= X89 <= 1
 0 <= X90 <= 1
 0 <= X91 <= 1
 0 <= X92 <= 1
 0 <= X93 <= 1
 0 <= X94 <= 1
 0 <= X95 <= 1
 0 <= X96 <= 1
 0 <= X97 <= 1
 0 <= X98 <= 1
 0 <= X99 <= 1
 0 <= X100 <= 1
 0 <= X101 <= 1
 0 <= X102 <= 1
 0 <= X103 <= 1
 0 <= X104 <= 1
 0 <= X105 <= 1
 0 <= X106 <= 1
 0 <= X107 <= 1
 0 <= X108 <= 1
 0 <= X109 <= 1
 0 <= X110 <= 1
 0 <= X111 <= 1
 0 <= X112 <= 1
 0 <= X113 <= 1
 0 <= X114 <= 1
 0 <= X115 <= 1
 0 <= X116 <= 1
 0 <= X117 <= 1
 0 <= X118 <= 1
 0 <= X119 <= 1
 0 <= X120 <= 1
 0 <= X121 <= 1
 0 <= X122 <= 1
 0 <= X123 <= 1
 0 <= X124 <= 1
 0 <= X125 <= 1
 0 <= X126 <= 1
 0 <= X127 <= 1
 0 <= X128 <= 1
 0 <= X129 <= 1
 0 <= X130 <= 1
 0 <= X131 <= 1
 0 <= X132 <= 1
 0 <= X133 <= 1
 0 <= X134 <= 1
 0 <= X135 <= 1
 0 <= X136 <= 4000000
 0 <= X137 <= 4000000
 -1380052 <= X138 <= 2619948
 -2619948 <= X139 <= 1380052
 -1380052 <= X140 <= 2619948
 -1560255 <= X141 <= 2439745
 -2439745 <= X142 <= 1560255
 -1560255 <= X143 <= 2439745
 -3959302 <= X144 <= 40698
 -40698 <= X145 <= 3959302
 -40698 <= X146 <= 3959302
 -797743 <= X147 <= 3202257
 -3202257 <= X148 <= 797743
 -797743 <= X149 <= 3202257
 -82083 <= X150 <= 3917917
 -3917917 <= X151 <= 82083
 -82083 <= X152 <= 3917917
 -207352 <= X153 <= 3792648
 -3792648 <= X154 <= 207352
 -207352 <= X155 <= 3792648
 -3834061 <= X156 <= 165939
 -165939 <= X157 <= 3834061
 -165939 <= X158 <= 3834061
 -3501411 <= X159 <= 498589
 -498589 <= X160 <= 3501411
 -498589 <= X161 <= 3501411
 -492581 <= X162 <= 3507419
 -3507419 <= X163 <= 492581
 -492581 <= X164 <= 3507419
 -1161314 <= X165 <= 2838686
 -2838686 <= X166 <= 1161314
 -1161314 <= X167 <= 2838686
 -1084932 <= X168 <= 2915068
 -2915068 <= X169 <= 1084932
 -1084932 <= X170 <= 2915068
 -1245734 <= X171 <= 2754266
 -2754266 <= X172 <= 1245734
 -1245734 <= X173 <= 2754266
 -330942 <= X174 <= 3669058
 -3669058 <= X175 <= 330942
 -330942 <= X176 <= 3669058
 -1649269 <= X177 <= 2350731
 -2350731 <= X178 <= 1649269
 -1649269 <= X179 <= 2350731
 -3459045 <= X180 <= 540955
 -540955 <= X181 <= 3459045
 -540955 <= X182 <= 3459045
 -106688 <= X183 <= 3893312
 -3893312 <= X184 <= 106688
 -106688 <= X185 <= 3893312
 -976 <= X186 <= 3999024
 -3999024 <= X187 <= 976
 -976 <= X188 <= 3999024
 -885740 <= X189 <= 3114260
 -3114260 <= X190 <= 885740
 -885740 <= X191 <= 3114260
 -1170192 <= X192 <= 2829808
 -2829808 <= X193 <= 1170192
 -1170192 <= X194 <= 2829808
 -1793552 <= X195 <= 2206448
 -2206448 <= X196 <= 1793552
 -1793552 <= X197 <= 2206448
 -2819196 <= X198 <= 1180804
 -1180804 <= X199 <= 2819196
 -1180804 <= X200 <= 2819196
 -2887957 <= X201 <= 1112043
 -1112043 <= X202 <= 2887957
 -1112043 <= X203 <= 2887957
 -1040560 <= X204 <= 2959440
 -2959440 <= X205 <= 1040560
 -1040560 <= X206 <= 2959440
 -1947138 <= X207 <= 2052862
 -2052862 <= X208 <= 1947138
 -1947138 <= X209 <= 2052862
 -612920 <= X210 <= 3387080
 -3387080 <= X211 <= 612920
 -612920 <= X212 <= 3387080
 -606138 <= X213 <= 3393862
 -3393862 <= X214 <= 606138
 -606138 <= X215 <= 3393862
 -1916984 <= X216 <= 2083016
 -2083016 <= X217 <= 1916984
 -1916984 <= X218 <= 2083016
 -256151 <= X219 <= 3743849
 -3743849 <= X220 <= 256151
 -256151 <= X221 <= 3743849
 -2531114 <= X222 <= 1468886
 -1468886 <= X223 <= 2531114
 -910152 <= X224 <= 2531114
 -2402919 <= X225 <= 1597081
 -1597081 <= X226 <= 2402919
 -1038347 <= X227 <= 2402919
 -726660 <= X228 <= 3273340
 -3273340 <= X229 <= 726660
 -726660 <= X230 <= 3273340
 -1968 <= X231 <= 3998032
 -3998032 <= X232 <= 1968
 -1968 <= X233 <= 3998032
 -1025193 <= X234 <= 2974807
 -2974807 <= X235 <= 1025193
 -1025193 <= X236 <= 2974807
 -267196 <= X237 <= 3732804
 -3732804 <= X238 <= 267196
 -267196 <= X239 <= 3732804
 -2135583 <= X240 <= 1864417
 -1864417 <= X241 <= 2135583
 -1864417 <= X242 <= 2135583
 -3639549 <= X243 <= 360451
 -360451 <= X244 <= 3639549
 -360451 <= X245 <= 3639549
 -2505914 <= X246 <= 1494086
 -1494086 <= X247 <= 2505914
 -1494086 <= X248 <= 2505914
 -969366 <= X249 <= 3030634
 -3030634 <= X250 <= 969366
 -969366 <= X251 <= 3030634
 -9266 <= X252 <= 3990734
 -3990734 <= X253 <= 9266
 -9266 <= X254 <= 3990734
 -1008109 <= X255 <= 2991891
 -2991891 <= X256 <= 1008109
 -1008109 <= X257 <= 2991891
 -3879357 <= X258 <= 120643
 -120643 <= X259 <= 3879357
 -120643 <= X260 <= 3879357
 -1121027 <= X261 <= 2878973
 -2878973 <= X262 <= 1121027
 -1121027 <= X263 <= 2878973
 -3999511 <= X264 <= 489
 -489 <= X265 <= 3999511
 -489 <= X266 <= 3999511
 -2758187 <= X267 <= 1241813
 -1241813 <= X268 <= 2758187
 -1241813 <= X269 <= 2758187
 -3279616 <= X270 <= 720384
 -720384 <= X271 <= 3279616
 -720384 <= X272 <= 3279616
 -3865360 <= X273 <= 134640
 -134640 <= X274 <= 3865360
 -134640 <= X275 <= 3865360
 -1125788 <= X276 <= 2874212
 -2874212 <= X277 <= 1125788
 -1125788 <= X278 <= 2874212
 -102942 <= X279 <= 3897058
 -3897058 <= X280 <= 102942
 -102942 <= X281 <= 3897058
 -1191341 <= X282 <= 2808659
 -2808659 <= X283 <= 1191341
 -1191341 <= X284 <= 2808659
 -719729 <= X285 <= 3280271
 -3280271 <= X286 <= 719729
 -719729 <= X287 <= 3280271
 -1112124 <= X288 <= 2887876
 -2887876 <= X289 <= 1112124
 -1112124 <= X290 <= 2887876
 -1893227 <= X291 <= 2106773
 -2106773 <= X292 <= 1893227
 -1893227 <= X293 <= 2106773
 -1420227 <= X294 <= 2579773
 -2579773 <= X295 <= 1420227
 -1420227 <= X296 <= 2579773
 -10374 <= X297 <= 3989626
 -3989626 <= X298 <= 10374
 -10374 <= X299 <= 3989626
 -1408706 <= X300 <= 2591294
 -2591294 <= X301 <= 1408706
 -1408706 <= X302 <= 2591294
 -332663 <= X303 <= 3667337
 -3667337 <= X304 <= 332663
 -332663 <= X305 <= 3667337
 -936897 <= X306 <= 3063103
 -3063103 <= X307 <= 936897
 -936897 <= X308 <= 3063103
 -179424 <= X309 <= 3820576
 -3820576 <= X310 <= 179424
 -179424 <= X311 <= 3820576
 -1824156 <= X312 <= 2175844
 -2175844 <= X313 <= 1824156
 -1245798 <= X314 <= 2175844
 -2120824 <= X315 <= 1879176
 -1879176 <= X316 <= 2120824
 -1300818 <= X317 <= 2120824
 -3028362 <= X318 <= 971638
 -971638 <= X319 <= 3028362
 -971638 <= X320 <= 3028362
 -3711828 <= X321 <= 288172
 -288172 <= X322 <= 3711828
 -288172 <= X323 <= 3711828
 -555910 <= X324 <= 3444090
 -3444090 <= X325 <= 555910
 -555910 <= X326 <= 3444090
 -3242762 <= X327 <= 757238
 -757238 <= X328 <= 3242762
 -757238 <= X329 <= 3242762
 -957618 <= X330 <= 3042382
 -3042382 <= X331 <= 957618
 -957618 <= X332 <= 3042382
 -216239 <= X333 <= 3783761
 -3783761 <= X334 <= 216239
 -216239 <= X335 <= 3783761
 -3608718 <= X336 <= 391282
 -391282 <= X337 <= 3608718
 -391282 <= X338 <= 3608718
 -1961830 <= X339 <= 2038170
 -2038170 <= X340 <= 1961830
 -1961830 <= X341 <= 2038170
Integers
 X_1
 X0
 X1
 X2
 X3
 X4
 X5
 X6
 X7
 X8
 X9
 X10
 X11
 X12
 X13
 X14
 X15
 X16
 X17
 X18
 X19
 X20
 X21
 X22
 X23
 X24
 X25
 X26
 X27
 X28
 X29
 X30
 X31
 X32
 X33
 X34
 X35
 X36
 X37
 X38
 X39
 X40
 X41
 X42
 X43
 X44
 X45
 X46
 X47
 X48
 X49
 X50
 X51
 X52
 X53
 X54
 X55
 X56
 X57
 X58
 X59
 X60
 X61
 X62
 X63
 X64
 X65
 X66
 X67
 X68
 X69
 X70
 X71
 X72
 X73
 X74
 X75
 X76
 X77
 X78
 X79
 X80
 X81
 X82
 X83
 X84
 X85
 X86
 X87
 X88
 X89
 X90
 X91
 X92
 X93
 X94
 X95
 X96
 X97
 X98
 X99
 X100
 X101
 X102
 X103
 X104
 X105
 X106
 X107
 X108
 X109
 X110
 X111
 X112
 X113
 X114
 X115
 X116
 X117
 X118
 X119
 X120
 X121
 X122
 X123
 X124
 X125
 X126
 X127
 X128
 X129
 X130
 X131
 X132
 X133
 X134
 X135
 X136
 X137
 X138
 X139
 X140
 X141
 X142
 X143
 X144
 X145
 X146
 X147
 X148
 X149
 X150
 X151
 X152
 X153
 X154
 X155
 X156
 X157
 X158
 X159
 X160
 X161
 X162
 X163
 X164
 X165
 X166
 X167
 X168
 X169
 X170
 X171
 X172
 X173
 X174
 X175
 X176
 X177
 X178
 X179
 X180
 X181
 X182
 X183
 X184
 X185
 X186
 X187
 X188
 X189
 X190
 X191
 X192
 X193
 X194
 X195
 X196
 X197
 X198
 X199
 X200
 X201
 X202
 X203
 X204
 X205
 X206
 X207
 X208
 X209
 X210
 X211
 X212
 X213
 X214
 X215
 X216
 X217
 X218
 X219
 X220
 X221
 X222
 X223
 X224
 X225
 X226
 X227
 X228
 X229
 X230
 X231
 X232
 X233
 X234
 X235
 X236
 X237
 X238
 X239
 X240
 X241
 X242
 X243
 X244
 X245
 X246
 X247
 X248
 X249
 X250
 X251
 X252
 X253
 X254
 X255
 X256
 X257
 X258
 X259
 X260
 X261
 X262
 X263
 X264
 X265
 X266
 X267
 X268
 X269
 X270
 X271
 X272
 X273
 X274
 X275
 X276
 X277
 X278
 X279
 X280
 X281
 X282
 X283
 X284
 X285
 X286
 X287
 X288
 X289
 X290
 X291
 X292
 X293
 X294
 X295
 X296
 X297
 X298
 X299
 X300
 X301
 X302
 X303
 X304
 X305
 X306
 X307
 X308
 X309
 X310
 X311
 X312
 X313
 X314
 X315
 X316
 X317
 X318
 X319
 X320
 X321
 X322
 X323
 X324
 X325
 X326
 X327
 X328
 X329
 X330
 X331
 X332
 X333
 X334
 X335
 X336
 X337
 X338
 X339
 X340
 X341
End
